% Logging successfully configured
%%%mzn-stat: initTime=0.008730404
%%%mzn-stat: objective=847
%%%mzn-stat: nodes=79
%%%mzn-stat: restarts=0
%%%mzn-stat: peakDepth=79
%%%mzn-stat: solveTime=0.000515286
%%%mzn-stat: variables=208
%%%mzn-stat: propagators=128
%%%mzn-stat: failures=0
%%%mzn-stat: propagations=429
%%%mzn-stat: nogoods=0
%%%mzn-stat: numAtomicConstraintsPropagated=0
%%%mzn-stat: circuitNumber1PropagationsTotal=23
%%%mzn-stat: circuitNumber1CircuitConflicts=0
%%%mzn-stat: circuitNumber1AlldiffConflicts=0
%%%mzn-stat: circuitNumber1TotalFixedEdgesAtConflict=0
%%%mzn-stat: circuitNumber1NumberOfConflicts=0
%%%mzn-stat: circuitNumber1GacPrunings=41
%%%mzn-stat: circuitNumber1PropagationsThatGacPruned=11
%%%mzn-stat: circuitNumber1TotalPruningHallSetSize=91
%%%mzn-stat: circuitNumber1NumberOfPruningExplanations=41
%%%mzn-stat: circuitNumber1MaxPruningHallSetSize=8
%%%mzn-stat: circuitNumber1TotalSccSizeAtPruning=38
%%%mzn-stat: circuitNumber1NumberOfSccPruningCalls=11
%%%mzn-stat: circuitNumber1TotalVarsInvolvedInPruning=35
%%%mzn-stat: circuitNumber1MaxValuesPrunedFromSingleVar=2
%%%mzn-stat: circuitNumber1HallCircuitChecks=35
%%%mzn-stat: circuitNumber1HallCircuitPrunings=2
%%%mzn-stat: circuitNumber1CircuitPreventPrunings=7
%%%mzn-stat: AverageConflictSize=0
%%%mzn-stat: NumUnitNogoodsLearned=0
%%%mzn-stat: AverageLearnedNogoodLength=0
%%%mzn-stat: AverageBacktrackAmount=0
%%%mzn-stat: AverageLbd=0
%%%mzn-stat: 2AutonomousSearchNumBackupCalled=69
%%%mzn-stat: 2AutonomousSearchNumPredicatesRemoved=0
%%%mzn-stat: 2AutonomousSearchNumCalls=70
%%%mzn-stat: 2AutonomousSearchNumPredicatesAdded=0
%%%mzn-stat: 2AutonomousSearchAverageSizeOfHeap=0
%%%mzn-stat: 2AutonomousSearchNumAssignedPredicatesEncountered=0
%%%mzn-stat-end
maxleg = 847;
succ = array1d(1..20,[3, 9, 6, 5, 10, 11, 8, 13, 12, 15, 16, 19, 2, 7, 17, 18, 20, 4, 1, 14]);
% time elapsed: 6.18 s
----------
%%%mzn-stat: initTime=0.008730404
%%%mzn-stat: objective=472
%%%mzn-stat: nodes=150
%%%mzn-stat: restarts=0
%%%mzn-stat: peakDepth=79
%%%mzn-stat: solveTime=0.000960609
%%%mzn-stat: variables=208
%%%mzn-stat: propagators=128
%%%mzn-stat: failures=0
%%%mzn-stat: propagations=672
%%%mzn-stat: nogoods=0
%%%mzn-stat: numAtomicConstraintsPropagated=0
%%%mzn-stat: circuitNumber1PropagationsTotal=43
%%%mzn-stat: circuitNumber1CircuitConflicts=0
%%%mzn-stat: circuitNumber1AlldiffConflicts=0
%%%mzn-stat: circuitNumber1TotalFixedEdgesAtConflict=0
%%%mzn-stat: circuitNumber1NumberOfConflicts=0
%%%mzn-stat: circuitNumber1GacPrunings=80
%%%mzn-stat: circuitNumber1PropagationsThatGacPruned=20
%%%mzn-stat: circuitNumber1TotalPruningHallSetSize=211
%%%mzn-stat: circuitNumber1NumberOfPruningExplanations=80
%%%mzn-stat: circuitNumber1MaxPruningHallSetSize=12
%%%mzn-stat: circuitNumber1TotalSccSizeAtPruning=79
%%%mzn-stat: circuitNumber1NumberOfSccPruningCalls=20
%%%mzn-stat: circuitNumber1TotalVarsInvolvedInPruning=69
%%%mzn-stat: circuitNumber1MaxValuesPrunedFromSingleVar=2
%%%mzn-stat: circuitNumber1HallCircuitChecks=60
%%%mzn-stat: circuitNumber1HallCircuitPrunings=5
%%%mzn-stat: circuitNumber1CircuitPreventPrunings=16
%%%mzn-stat: AverageConflictSize=0
%%%mzn-stat: NumUnitNogoodsLearned=0
%%%mzn-stat: AverageLearnedNogoodLength=0
%%%mzn-stat: AverageBacktrackAmount=0
%%%mzn-stat: AverageLbd=0
%%%mzn-stat: 2AutonomousSearchNumBackupCalled=132
%%%mzn-stat: 2AutonomousSearchNumPredicatesRemoved=0
%%%mzn-stat: 2AutonomousSearchNumCalls=134
%%%mzn-stat: 2AutonomousSearchNumPredicatesAdded=0
%%%mzn-stat: 2AutonomousSearchAverageSizeOfHeap=0
%%%mzn-stat: 2AutonomousSearchNumAssignedPredicatesEncountered=0
%%%mzn-stat-end
maxleg = 472;
succ = array1d(1..20,[3, 9, 6, 5, 10, 19, 8, 13, 16, 15, 18, 1, 12, 7, 17, 11, 20, 4, 2, 14]);
% time elapsed: 6.18 s
----------
%%%mzn-stat: initTime=0.008730404
%%%mzn-stat: objective=425
%%%mzn-stat: nodes=223
%%%mzn-stat: restarts=0
%%%mzn-stat: peakDepth=79
%%%mzn-stat: solveTime=0.001412777
%%%mzn-stat: variables=208
%%%mzn-stat: propagators=128
%%%mzn-stat: failures=0
%%%mzn-stat: propagations=915
%%%mzn-stat: nogoods=0
%%%mzn-stat: numAtomicConstraintsPropagated=0
%%%mzn-stat: circuitNumber1PropagationsTotal=64
%%%mzn-stat: circuitNumber1CircuitConflicts=0
%%%mzn-stat: circuitNumber1AlldiffConflicts=0
%%%mzn-stat: circuitNumber1TotalFixedEdgesAtConflict=0
%%%mzn-stat: circuitNumber1NumberOfConflicts=0
%%%mzn-stat: circuitNumber1GacPrunings=122
%%%mzn-stat: circuitNumber1PropagationsThatGacPruned=31
%%%mzn-stat: circuitNumber1TotalPruningHallSetSize=388
%%%mzn-stat: circuitNumber1NumberOfPruningExplanations=122
%%%mzn-stat: circuitNumber1MaxPruningHallSetSize=13
%%%mzn-stat: circuitNumber1TotalSccSizeAtPruning=127
%%%mzn-stat: circuitNumber1NumberOfSccPruningCalls=31
%%%mzn-stat: circuitNumber1TotalVarsInvolvedInPruning=104
%%%mzn-stat: circuitNumber1MaxValuesPrunedFromSingleVar=3
%%%mzn-stat: circuitNumber1HallCircuitChecks=106
%%%mzn-stat: circuitNumber1HallCircuitPrunings=7
%%%mzn-stat: circuitNumber1CircuitPreventPrunings=23
%%%mzn-stat: AverageConflictSize=0
%%%mzn-stat: NumUnitNogoodsLearned=0
%%%mzn-stat: AverageLearnedNogoodLength=0
%%%mzn-stat: AverageBacktrackAmount=0
%%%mzn-stat: AverageLbd=0
%%%mzn-stat: 2AutonomousSearchNumBackupCalled=196
%%%mzn-stat: 2AutonomousSearchNumPredicatesRemoved=0
%%%mzn-stat: 2AutonomousSearchNumCalls=199
%%%mzn-stat: 2AutonomousSearchNumPredicatesAdded=0
%%%mzn-stat: 2AutonomousSearchAverageSizeOfHeap=0
%%%mzn-stat: 2AutonomousSearchNumAssignedPredicatesEncountered=0
%%%mzn-stat-end
maxleg = 425;
succ = array1d(1..20,[11, 9, 6, 5, 10, 19, 8, 13, 12, 15, 16, 1, 3, 7, 17, 18, 20, 4, 2, 14]);
% time elapsed: 6.18 s
----------
%%%mzn-stat: initTime=0.008730404
%%%mzn-stat: objective=416
%%%mzn-stat: nodes=294
%%%mzn-stat: restarts=0
%%%mzn-stat: peakDepth=79
%%%mzn-stat: solveTime=0.001978036
%%%mzn-stat: variables=208
%%%mzn-stat: propagators=128
%%%mzn-stat: failures=1
%%%mzn-stat: propagations=1168
%%%mzn-stat: nogoods=1
%%%mzn-stat: numAtomicConstraintsPropagated=0
%%%mzn-stat: circuitNumber1PropagationsTotal=86
%%%mzn-stat: circuitNumber1CircuitConflicts=0
%%%mzn-stat: circuitNumber1AlldiffConflicts=0
%%%mzn-stat: circuitNumber1TotalFixedEdgesAtConflict=0
%%%mzn-stat: circuitNumber1NumberOfConflicts=0
%%%mzn-stat: circuitNumber1GacPrunings=172
%%%mzn-stat: circuitNumber1PropagationsThatGacPruned=42
%%%mzn-stat: circuitNumber1TotalPruningHallSetSize=571
%%%mzn-stat: circuitNumber1NumberOfPruningExplanations=172
%%%mzn-stat: circuitNumber1MaxPruningHallSetSize=13
%%%mzn-stat: circuitNumber1TotalSccSizeAtPruning=177
%%%mzn-stat: circuitNumber1NumberOfSccPruningCalls=42
%%%mzn-stat: circuitNumber1TotalVarsInvolvedInPruning=143
%%%mzn-stat: circuitNumber1MaxValuesPrunedFromSingleVar=3
%%%mzn-stat: circuitNumber1HallCircuitChecks=155
%%%mzn-stat: circuitNumber1HallCircuitPrunings=9
%%%mzn-stat: circuitNumber1CircuitPreventPrunings=32
%%%mzn-stat: AverageConflictSize=3
%%%mzn-stat: NumUnitNogoodsLearned=0
%%%mzn-stat: AverageLearnedNogoodLength=11
%%%mzn-stat: AverageBacktrackAmount=0
%%%mzn-stat: AverageLbd=3
%%%mzn-stat: 2AutonomousSearchNumBackupCalled=258
%%%mzn-stat: 2AutonomousSearchNumPredicatesRemoved=0
%%%mzn-stat: 2AutonomousSearchNumCalls=262
%%%mzn-stat: 2AutonomousSearchNumPredicatesAdded=46
%%%mzn-stat: 2AutonomousSearchAverageSizeOfHeap=0.17557251908396945
%%%mzn-stat: 2AutonomousSearchNumAssignedPredicatesEncountered=46
%%%mzn-stat-end
maxleg = 416;
succ = array1d(1..20,[11, 9, 19, 5, 10, 3, 8, 13, 12, 15, 16, 1, 6, 7, 17, 18, 20, 4, 2, 14]);
% time elapsed: 6.18 s
----------
==========
% time elapsed: 6.18 s
%%%mzn-stat: initTime=0.008730404
%%%mzn-stat: objective=416
%%%mzn-stat: nodes=294
%%%mzn-stat: restarts=0
%%%mzn-stat: peakDepth=79
%%%mzn-stat: solveTime=0.002068921
%%%mzn-stat: variables=208
%%%mzn-stat: propagators=128
%%%mzn-stat: failures=2
%%%mzn-stat: propagations=1193
%%%mzn-stat: nogoods=2
%%%mzn-stat: numAtomicConstraintsPropagated=0
%%%mzn-stat: circuitNumber1PropagationsTotal=87
%%%mzn-stat: circuitNumber1CircuitConflicts=0
%%%mzn-stat: circuitNumber1AlldiffConflicts=0
%%%mzn-stat: circuitNumber1TotalFixedEdgesAtConflict=0
%%%mzn-stat: circuitNumber1NumberOfConflicts=0
%%%mzn-stat: circuitNumber1GacPrunings=176
%%%mzn-stat: circuitNumber1PropagationsThatGacPruned=43
%%%mzn-stat: circuitNumber1TotalPruningHallSetSize=611
%%%mzn-stat: circuitNumber1NumberOfPruningExplanations=176
%%%mzn-stat: circuitNumber1MaxPruningHallSetSize=19
%%%mzn-stat: circuitNumber1TotalSccSizeAtPruning=214
%%%mzn-stat: circuitNumber1NumberOfSccPruningCalls=43
%%%mzn-stat: circuitNumber1TotalVarsInvolvedInPruning=146
%%%mzn-stat: circuitNumber1MaxValuesPrunedFromSingleVar=3
%%%mzn-stat: circuitNumber1HallCircuitChecks=156
%%%mzn-stat: circuitNumber1HallCircuitPrunings=9
%%%mzn-stat: circuitNumber1CircuitPreventPrunings=33
%%%mzn-stat: AverageConflictSize=2.5
%%%mzn-stat: NumUnitNogoodsLearned=1
%%%mzn-stat: AverageLearnedNogoodLength=6
%%%mzn-stat: AverageBacktrackAmount=0
%%%mzn-stat: AverageLbd=2
%%%mzn-stat: 2AutonomousSearchNumBackupCalled=258
%%%mzn-stat: 2AutonomousSearchNumPredicatesRemoved=0
%%%mzn-stat: 2AutonomousSearchNumCalls=262
%%%mzn-stat: 2AutonomousSearchNumPredicatesAdded=111
%%%mzn-stat: 2AutonomousSearchAverageSizeOfHeap=0.17557251908396945
%%%mzn-stat: 2AutonomousSearchNumAssignedPredicatesEncountered=46
%%%mzn-stat-end
